c n orig vars 108
p cnf 110 316
1 2 -109 0
3 4 -109 0
5 6 -109 0
7 8 -109 0
9 10 -109 0
11 12 -109 0
13 14 -109 0
15 16 -109 0
17 18 -109 0
19 20 -109 0
21 22 -109 0
23 24 -109 0
25 26 -109 0
27 28 -109 0
29 30 -109 0
31 32 -109 0
33 34 -109 0
35 36 -109 0
37 46 55 64 73 82 91 100 -110 0
38 47 56 65 74 83 92 101 -110 0
39 48 57 66 75 84 93 102 -110 0
40 49 58 67 76 85 94 103 -110 0
41 50 59 68 77 86 95 104 -110 0
42 51 60 69 78 87 96 105 -110 0
43 52 61 70 79 88 97 106 -110 0
44 53 62 71 80 89 98 107 -110 0
45 54 63 72 81 90 99 108 -110 0
-37 -38 -110 0
-37 -39 -110 0
-37 -40 -110 0
-37 -41 -110 0
-37 -42 -110 0
-37 -43 -110 0
-37 -44 -110 0
-37 -45 -110 0
-38 -39 -110 0
-38 -40 -110 0
-38 -41 -110 0
-38 -42 -110 0
-38 -43 -110 0
-38 -44 -110 0
-38 -45 -110 0
-39 -40 -110 0
-39 -41 -110 0
-39 -42 -110 0
-39 -43 -110 0
-39 -44 -110 0
-39 -45 -110 0
-40 -41 -110 0
-40 -42 -110 0
-40 -43 -110 0
-40 -44 -110 0
-40 -45 -110 0
-41 -42 -110 0
-41 -43 -110 0
-41 -44 -110 0
-41 -45 -110 0
-42 -43 -110 0
-42 -44 -110 0
-42 -45 -110 0
-43 -44 -110 0
-43 -45 -110 0
-44 -45 -110 0
-46 -47 -110 0
-46 -48 -110 0
-46 -49 -110 0
-46 -50 -110 0
-46 -51 -110 0
-46 -52 -110 0
-46 -53 -110 0
-46 -54 -110 0
-47 -48 -110 0
-47 -49 -110 0
-47 -50 -110 0
-47 -51 -110 0
-47 -52 -110 0
-47 -53 -110 0
-47 -54 -110 0
-48 -49 -110 0
-48 -50 -110 0
-48 -51 -110 0
-48 -52 -110 0
-48 -53 -110 0
-48 -54 -110 0
-49 -50 -110 0
-49 -51 -110 0
-49 -52 -110 0
-49 -53 -110 0
-49 -54 -110 0
-50 -51 -110 0
-50 -52 -110 0
-50 -53 -110 0
-50 -54 -110 0
-51 -52 -110 0
-51 -53 -110 0
-51 -54 -110 0
-52 -53 -110 0
-52 -54 -110 0
-53 -54 -110 0
-55 -56 -110 0
-55 -57 -110 0
-55 -58 -110 0
-55 -59 -110 0
-55 -60 -110 0
-55 -61 -110 0
-55 -62 -110 0
-55 -63 -110 0
-56 -57 -110 0
-56 -58 -110 0
-56 -59 -110 0
-56 -60 -110 0
-56 -61 -110 0
-56 -62 -110 0
-56 -63 -110 0
-57 -58 -110 0
-57 -59 -110 0
-57 -60 -110 0
-57 -61 -110 0
-57 -62 -110 0
-57 -63 -110 0
-58 -59 -110 0
-58 -60 -110 0
-58 -61 -110 0
-58 -62 -110 0
-58 -63 -110 0
-59 -60 -110 0
-59 -61 -110 0
-59 -62 -110 0
-59 -63 -110 0
-60 -61 -110 0
-60 -62 -110 0
-60 -63 -110 0
-61 -62 -110 0
-61 -63 -110 0
-62 -63 -110 0
-64 -65 -110 0
-64 -66 -110 0
-64 -67 -110 0
-64 -68 -110 0
-64 -69 -110 0
-64 -70 -110 0
-64 -71 -110 0
-64 -72 -110 0
-65 -66 -110 0
-65 -67 -110 0
-65 -68 -110 0
-65 -69 -110 0
-65 -70 -110 0
-65 -71 -110 0
-65 -72 -110 0
-66 -67 -110 0
-66 -68 -110 0
-66 -69 -110 0
-66 -70 -110 0
-66 -71 -110 0
-66 -72 -110 0
-67 -68 -110 0
-67 -69 -110 0
-67 -70 -110 0
-67 -71 -110 0
-67 -72 -110 0
-68 -69 -110 0
-68 -70 -110 0
-68 -71 -110 0
-68 -72 -110 0
-69 -70 -110 0
-69 -71 -110 0
-69 -72 -110 0
-70 -71 -110 0
-70 -72 -110 0
-71 -72 -110 0
-73 -74 -110 0
-73 -75 -110 0
-73 -76 -110 0
-73 -77 -110 0
-73 -78 -110 0
-73 -79 -110 0
-73 -80 -110 0
-73 -81 -110 0
-74 -75 -110 0
-74 -76 -110 0
-74 -77 -110 0
-74 -78 -110 0
-74 -79 -110 0
-74 -80 -110 0
-74 -81 -110 0
-75 -76 -110 0
-75 -77 -110 0
-75 -78 -110 0
-75 -79 -110 0
-75 -80 -110 0
-75 -81 -110 0
-76 -77 -110 0
-76 -78 -110 0
-76 -79 -110 0
-76 -80 -110 0
-76 -81 -110 0
-77 -78 -110 0
-77 -79 -110 0
-77 -80 -110 0
-77 -81 -110 0
-78 -79 -110 0
-78 -80 -110 0
-78 -81 -110 0
-79 -80 -110 0
-79 -81 -110 0
-80 -81 -110 0
-82 -83 -110 0
-82 -84 -110 0
-82 -85 -110 0
-82 -86 -110 0
-82 -87 -110 0
-82 -88 -110 0
-82 -89 -110 0
-82 -90 -110 0
-83 -84 -110 0
-83 -85 -110 0
-83 -86 -110 0
-83 -87 -110 0
-83 -88 -110 0
-83 -89 -110 0
-83 -90 -110 0
-84 -85 -110 0
-84 -86 -110 0
-84 -87 -110 0
-84 -88 -110 0
-84 -89 -110 0
-84 -90 -110 0
-85 -86 -110 0
-85 -87 -110 0
-85 -88 -110 0
-85 -89 -110 0
-85 -90 -110 0
-86 -87 -110 0
-86 -88 -110 0
-86 -89 -110 0
-86 -90 -110 0
-87 -88 -110 0
-87 -89 -110 0
-87 -90 -110 0
-88 -89 -110 0
-88 -90 -110 0
-89 -90 -110 0
-91 -92 -110 0
-91 -93 -110 0
-91 -94 -110 0
-91 -95 -110 0
-91 -96 -110 0
-91 -97 -110 0
-91 -98 -110 0
-91 -99 -110 0
-92 -93 -110 0
-92 -94 -110 0
-92 -95 -110 0
-92 -96 -110 0
-92 -97 -110 0
-92 -98 -110 0
-92 -99 -110 0
-93 -94 -110 0
-93 -95 -110 0
-93 -96 -110 0
-93 -97 -110 0
-93 -98 -110 0
-93 -99 -110 0
-94 -95 -110 0
-94 -96 -110 0
-94 -97 -110 0
-94 -98 -110 0
-94 -99 -110 0
-95 -96 -110 0
-95 -97 -110 0
-95 -98 -110 0
-95 -99 -110 0
-96 -97 -110 0
-96 -98 -110 0
-96 -99 -110 0
-97 -98 -110 0
-97 -99 -110 0
-98 -99 -110 0
-100 -101 -110 0
-100 -102 -110 0
-100 -103 -110 0
-100 -104 -110 0
-100 -105 -110 0
-100 -106 -110 0
-100 -107 -110 0
-100 -108 -110 0
-101 -102 -110 0
-101 -103 -110 0
-101 -104 -110 0
-101 -105 -110 0
-101 -106 -110 0
-101 -107 -110 0
-101 -108 -110 0
-102 -103 -110 0
-102 -104 -110 0
-102 -105 -110 0
-102 -106 -110 0
-102 -107 -110 0
-102 -108 -110 0
-103 -104 -110 0
-103 -105 -110 0
-103 -106 -110 0
-103 -107 -110 0
-103 -108 -110 0
-104 -105 -110 0
-104 -106 -110 0
-104 -107 -110 0
-104 -108 -110 0
-105 -106 -110 0
-105 -107 -110 0
-105 -108 -110 0
-106 -107 -110 0
-106 -108 -110 0
-107 -108 -110 0
109 110 0
